Ordonnancement/plne/source/petit_instance/5job/5job_6.dat
data;
param nombreJob := 5;
param nombreRessource := 3;
param duree := 1 6 2 6 3 6 4 4 5 5;
param capaciteRessource := 1 7 2 12 3 13;
param besoinRessource : 1 2 3 :=
                    1   4 7 7
                    2   2 6 1
                    3   3 8 1
                    4   1 3 2
                    5   1 6 4;
end;

