Ordonnancement/plne/source/glpk_resultat/5job/5job_6.sol
Problem:    glpsolRcpsp
Rows:       347
Columns:    136 (135 integer, 135 binary)
Non-zeros:  2686
Status:     INTEGER OPTIMAL
Objective:  obj = 18 (MINimum)

   No.   Row name        Activity     Lower bound   Upper bound
------ ------------    ------------- ------------- -------------
     1 periode[1]                  6             6             = 
     2 periode[2]                  6             6             = 
     3 periode[3]                  6             6             = 
     4 periode[4]                  4             4             = 
     5 periode[5]                  5             5             = 
     6 complet[1,1]                4                           6 
     7 complet[1,2]                3                           6 
     8 complet[1,3]                2                           6 
     9 complet[1,4]                1                           6 
    10 complet[1,5]                0                           6 
    11 complet[1,6]                6                           6 
    12 complet[1,7]                0                           6 
    13 complet[1,8]                0                           6 
    14 complet[1,9]                0                           6 
    15 complet[1,10]
                                   0                           6 
    16 complet[1,11]
                                   0                           6 
    17 complet[1,12]
                                   0                           6 
    18 complet[1,13]
                                   0                           6 
    19 complet[1,14]
                                   0                           6 
    20 complet[1,15]
                                   0                           6 
    21 complet[1,16]
                                   0                           6 
    22 complet[1,17]
                                   0                           6 
    23 complet[1,18]
                                   0                           6 
    24 complet[1,19]
                                   0                           6 
    25 complet[1,20]
                                   0                           6 
    26 complet[1,21]
                                   0                           6 
    27 complet[1,22]
                                   0                           6 
    28 complet[1,23]
                                   0                           6 
    29 complet[1,24]
                                   0                           6 
    30 complet[1,25]
                                   0                           6 
    31 complet[2,1]                6                           6 
    32 complet[2,2]                6                           6 
    33 complet[2,3]                6                           6 
    34 complet[2,4]                6                           6 
    35 complet[2,5]                6                           6 
    36 complet[2,6]                6                           6 
    37 complet[2,7]                6                           6 
    38 complet[2,8]                6                           6 
    39 complet[2,9]                6                           6 
    40 complet[2,10]
                                   6                           6 
    41 complet[2,11]
                                   6                           6 
    42 complet[2,12]
                                  -1                           6 
    43 complet[2,13]
                                   4                           6 
    44 complet[2,14]
                                   3                           6 
    45 complet[2,15]
                                   2                           6 
    46 complet[2,16]
                                   1                           6 
    47 complet[2,17]
                                   0                           6 
    48 complet[2,18]
                                   6                           6 
    49 complet[2,19]
                                   0                           6 
    50 complet[2,20]
                                   0                           6 
    51 complet[2,21]
                                   0                           6 
    52 complet[2,22]
                                   0                           6 
    53 complet[2,23]
                                   0                           6 
    54 complet[2,24]
                                   0                           6 
    55 complet[2,25]
                                   0                           6 
    56 complet[3,1]                6                           6 
    57 complet[3,2]                6                           6 
    58 complet[3,3]                6                           6 
    59 complet[3,4]                6                           6 
    60 complet[3,5]                6                           6 
    61 complet[3,6]               -1                           6 
    62 complet[3,7]                4                           6 
    63 complet[3,8]                3                           6 
    64 complet[3,9]                2                           6 
    65 complet[3,10]
                                   1                           6 
    66 complet[3,11]
                                   0                           6 
    67 complet[3,12]
                                   6                           6 
    68 complet[3,13]
                                   0                           6 
    69 complet[3,14]
                                   0                           6 
    70 complet[3,15]
                                   0                           6 
    71 complet[3,16]
                                   0                           6 
    72 complet[3,17]
                                   0                           6 
    73 complet[3,18]
                                   0                           6 
    74 complet[3,19]
                                   0                           6 
    75 complet[3,20]
                                   0                           6 
    76 complet[3,21]
                                   0                           6 
    77 complet[3,22]
                                   0                           6 
    78 complet[3,23]
                                   0                           6 
    79 complet[3,24]
                                   0                           6 
    80 complet[3,25]
                                   0                           6 
    81 complet[4,1]                4                           4 
    82 complet[4,2]                4                           4 
    83 complet[4,3]                4                           4 
    84 complet[4,4]                4                           4 
    85 complet[4,5]                4                           4 
    86 complet[4,6]                4                           4 
    87 complet[4,7]                4                           4 
    88 complet[4,8]               -1                           4 
    89 complet[4,9]                2                           4 
    90 complet[4,10]
                                   1                           4 
    91 complet[4,11]
                                   0                           4 
    92 complet[4,12]
                                   4                           4 
    93 complet[4,13]
                                   0                           4 
    94 complet[4,14]
                                   0                           4 
    95 complet[4,15]
                                   0                           4 
    96 complet[4,16]
                                   0                           4 
    97 complet[4,17]
                                   0                           4 
    98 complet[4,18]
                                   0                           4 
    99 complet[4,19]
                                   0                           4 
   100 complet[4,20]
                                   0                           4 
   101 complet[4,21]
                                   0                           4 
   102 complet[4,22]
                                   0                           4 
   103 complet[4,23]
                                   0                           4 
   104 complet[4,24]
                                   0                           4 
   105 complet[4,25]
                                   0                           4 
   106 complet[5,1]                5                           5 
   107 complet[5,2]                5                           5 
   108 complet[5,3]                5                           5 
   109 complet[5,4]                5                           5 
   110 complet[5,5]                5                           5 
   111 complet[5,6]                5                           5 
   112 complet[5,7]                5                           5 
   113 complet[5,8]                5                           5 
   114 complet[5,9]                5                           5 
   115 complet[5,10]
                                   5                           5 
   116 complet[5,11]
                                   5                           5 
   117 complet[5,12]
                                  -1                           5 
   118 complet[5,13]
                                   3                           5 
   119 complet[5,14]
                                   2                           5 
   120 complet[5,15]
                                   1                           5 
   121 complet[5,16]
                                   0                           5 
   122 complet[5,17]
                                   5                           5 
   123 complet[5,18]
                                   0                           5 
   124 complet[5,19]
                                   0                           5 
   125 complet[5,20]
                                   0                           5 
   126 complet[5,21]
                                   0                           5 
   127 complet[5,22]
                                   0                           5 
   128 complet[5,23]
                                   0                           5 
   129 complet[5,24]
                                   0                           5 
   130 complet[5,25]
                                   0                           5 
   131 cmax[1,1]                  17            -0               
   132 cmax[1,2]                  16            -0               
   133 cmax[1,3]                  15            -0               
   134 cmax[1,4]                  14            -0               
   135 cmax[1,5]                  13            -0               
   136 cmax[1,6]                  12            -0               
   137 cmax[1,7]                  18            -0               
   138 cmax[1,8]                  18            -0               
   139 cmax[1,9]                  18            -0               
   140 cmax[1,10]                 18            -0               
   141 cmax[1,11]                 18            -0               
   142 cmax[1,12]                 18            -0               
   143 cmax[1,13]                 18            -0               
   144 cmax[1,14]                 18            -0               
   145 cmax[1,15]                 18            -0               
   146 cmax[1,16]                 18            -0               
   147 cmax[1,17]                 18            -0               
   148 cmax[1,18]                 18            -0               
   149 cmax[1,19]                 18            -0               
   150 cmax[1,20]                 18            -0               
   151 cmax[1,21]                 18            -0               
   152 cmax[1,22]                 18            -0               
   153 cmax[1,23]                 18            -0               
   154 cmax[1,24]                 18            -0               
   155 cmax[1,25]                 18            -0               
   156 cmax[1,26]                 18            -0               
   157 cmax[1,27]                 18            -0               
   158 cmax[2,1]                  18            -0               
   159 cmax[2,2]                  18            -0               
   160 cmax[2,3]                  18            -0               
   161 cmax[2,4]                  18            -0               
   162 cmax[2,5]                  18            -0               
   163 cmax[2,6]                  18            -0               
   164 cmax[2,7]                  18            -0               
   165 cmax[2,8]                  18            -0               
   166 cmax[2,9]                  18            -0               
   167 cmax[2,10]                 18            -0               
   168 cmax[2,11]                 18            -0               
   169 cmax[2,12]                 18            -0               
   170 cmax[2,13]                  5            -0               
   171 cmax[2,14]                  4            -0               
   172 cmax[2,15]                  3            -0               
   173 cmax[2,16]                  2            -0               
   174 cmax[2,17]                  1            -0               
   175 cmax[2,18]                  0            -0               
   176 cmax[2,19]                 18            -0               
   177 cmax[2,20]                 18            -0               
   178 cmax[2,21]                 18            -0               
   179 cmax[2,22]                 18            -0               
   180 cmax[2,23]                 18            -0               
   181 cmax[2,24]                 18            -0               
   182 cmax[2,25]                 18            -0               
   183 cmax[2,26]                 18            -0               
   184 cmax[2,27]                 18            -0               
   185 cmax[3,1]                  18            -0               
   186 cmax[3,2]                  18            -0               
   187 cmax[3,3]                  18            -0               
   188 cmax[3,4]                  18            -0               
   189 cmax[3,5]                  18            -0               
   190 cmax[3,6]                  18            -0               
   191 cmax[3,7]                  11            -0               
   192 cmax[3,8]                  10            -0               
   193 cmax[3,9]                   9            -0               
   194 cmax[3,10]                  8            -0               
   195 cmax[3,11]                  7            -0               
   196 cmax[3,12]                  6            -0               
   197 cmax[3,13]                 18            -0               
   198 cmax[3,14]                 18            -0               
   199 cmax[3,15]                 18            -0               
   200 cmax[3,16]                 18            -0               
   201 cmax[3,17]                 18            -0               
   202 cmax[3,18]                 18            -0               
   203 cmax[3,19]                 18            -0               
   204 cmax[3,20]                 18            -0               
   205 cmax[3,21]                 18            -0               
   206 cmax[3,22]                 18            -0               
   207 cmax[3,23]                 18            -0               
   208 cmax[3,24]                 18            -0               
   209 cmax[3,25]                 18            -0               
   210 cmax[3,26]                 18            -0               
   211 cmax[3,27]                 18            -0               
   212 cmax[4,1]                  18            -0               
   213 cmax[4,2]                  18            -0               
   214 cmax[4,3]                  18            -0               
   215 cmax[4,4]                  18            -0               
   216 cmax[4,5]                  18            -0               
   217 cmax[4,6]                  18            -0               
   218 cmax[4,7]                  18            -0               
   219 cmax[4,8]                  18            -0               
   220 cmax[4,9]                   9            -0               
   221 cmax[4,10]                  8            -0               
   222 cmax[4,11]                  7            -0               
   223 cmax[4,12]                  6            -0               
   224 cmax[4,13]                 18            -0               
   225 cmax[4,14]                 18            -0               
   226 cmax[4,15]                 18            -0               
   227 cmax[4,16]                 18            -0               
   228 cmax[4,17]                 18            -0               
   229 cmax[4,18]                 18            -0               
   230 cmax[4,19]                 18            -0               
   231 cmax[4,20]                 18            -0               
   232 cmax[4,21]                 18            -0               
   233 cmax[4,22]                 18            -0               
   234 cmax[4,23]                 18            -0               
   235 cmax[4,24]                 18            -0               
   236 cmax[4,25]                 18            -0               
   237 cmax[4,26]                 18            -0               
   238 cmax[4,27]                 18            -0               
   239 cmax[5,1]                  18            -0               
   240 cmax[5,2]                  18            -0               
   241 cmax[5,3]                  18            -0               
   242 cmax[5,4]                  18            -0               
   243 cmax[5,5]                  18            -0               
   244 cmax[5,6]                  18            -0               
   245 cmax[5,7]                  18            -0               
   246 cmax[5,8]                  18            -0               
   247 cmax[5,9]                  18            -0               
   248 cmax[5,10]                 18            -0               
   249 cmax[5,11]                 18            -0               
   250 cmax[5,12]                 18            -0               
   251 cmax[5,13]                  5            -0               
   252 cmax[5,14]                  4            -0               
   253 cmax[5,15]                  3            -0               
   254 cmax[5,16]                  2            -0               
   255 cmax[5,17]                  1            -0               
   256 cmax[5,18]                 18            -0               
   257 cmax[5,19]                 18            -0               
   258 cmax[5,20]                 18            -0               
   259 cmax[5,21]                 18            -0               
   260 cmax[5,22]                 18            -0               
   261 cmax[5,23]                 18            -0               
   262 cmax[5,24]                 18            -0               
   263 cmax[5,25]                 18            -0               
   264 cmax[5,26]                 18            -0               
   265 cmax[5,27]                 18            -0               
   266 ressource[1,1]
                                   4                           7 
   267 ressource[1,2]
                                   4                           7 
   268 ressource[1,3]
                                   4                           7 
   269 ressource[1,4]
                                   4                           7 
   270 ressource[1,5]
                                   4                           7 
   271 ressource[1,6]
                                   4                           7 
   272 ressource[1,7]
                                   3                           7 
   273 ressource[1,8]
                                   3                           7 
   274 ressource[1,9]
                                   4                           7 
   275 ressource[1,10]
                                   4                           7 
   276 ressource[1,11]
                                   4                           7 
   277 ressource[1,12]
                                   4                           7 
   278 ressource[1,13]
                                   3                           7 
   279 ressource[1,14]
                                   3                           7 
   280 ressource[1,15]
                                   3                           7 
   281 ressource[1,16]
                                   3                           7 
   282 ressource[1,17]
                                   3                           7 
   283 ressource[1,18]
                                   2                           7 
   284 ressource[1,19]
                                   0                           7 
   285 ressource[1,20]
                                   0                           7 
   286 ressource[1,21]
                                   0                           7 
   287 ressource[1,22]
                                   0                           7 
   288 ressource[1,23]
                                   0                           7 
   289 ressource[1,24]
                                   0                           7 
   290 ressource[1,25]
                                   0                           7 
   291 ressource[1,26]
                                   0                           7 
   292 ressource[1,27]
                                   0                           7 
   293 ressource[2,1]
                                   7                          12 
   294 ressource[2,2]
                                   7                          12 
   295 ressource[2,3]
                                   7                          12 
   296 ressource[2,4]
                                   7                          12 
   297 ressource[2,5]
                                   7                          12 
   298 ressource[2,6]
                                   7                          12 
   299 ressource[2,7]
                                   8                          12 
   300 ressource[2,8]
                                   8                          12 
   301 ressource[2,9]
                                  11                          12 
   302 ressource[2,10]
                                  11                          12 
   303 ressource[2,11]
                                  11                          12 
   304 ressource[2,12]
                                  11                          12 
   305 ressource[2,13]
                                  12                          12 
   306 ressource[2,14]
                                  12                          12 
   307 ressource[2,15]
                                  12                          12 
   308 ressource[2,16]
                                  12                          12 
   309 ressource[2,17]
                                  12                          12 
   310 ressource[2,18]
                                   6                          12 
   311 ressource[2,19]
                                   0                          12 
   312 ressource[2,20]
                                   0                          12 
   313 ressource[2,21]
                                   0                          12 
   314 ressource[2,22]
                                   0                          12 
   315 ressource[2,23]
                                   0                          12 
   316 ressource[2,24]
                                   0                          12 
   317 ressource[2,25]
                                   0                          12 
   318 ressource[2,26]
                                   0                          12 
   319 ressource[2,27]
                                   0                          12 
   320 ressource[3,1]
                                   7                          13 
   321 ressource[3,2]
                                   7                          13 
   322 ressource[3,3]
                                   7                          13 
   323 ressource[3,4]
                                   7                          13 
   324 ressource[3,5]
                                   7                          13 
   325 ressource[3,6]
                                   7                          13 
   326 ressource[3,7]
                                   1                          13 
   327 ressource[3,8]
                                   1                          13 
   328 ressource[3,9]
                                   3                          13 
   329 ressource[3,10]
                                   3                          13 
   330 ressource[3,11]
                                   3                          13 
   331 ressource[3,12]
                                   3                          13 
   332 ressource[3,13]
                                   5                          13 
   333 ressource[3,14]
                                   5                          13 
   334 ressource[3,15]
                                   5                          13 
   335 ressource[3,16]
                                   5                          13 
   336 ressource[3,17]
                                   5                          13 
   337 ressource[3,18]
                                   1                          13 
   338 ressource[3,19]
                                   0                          13 
   339 ressource[3,20]
                                   0                          13 
   340 ressource[3,21]
                                   0                          13 
   341 ressource[3,22]
                                   0                          13 
   342 ressource[3,23]
                                   0                          13 
   343 ressource[3,24]
                                   0                          13 
   344 ressource[3,25]
                                   0                          13 
   345 ressource[3,26]
                                   0                          13 
   346 ressource[3,27]
                                   0                          13 
   347 obj                        18                             

   No. Column name       Activity     Lower bound   Upper bound
------ ------------    ------------- ------------- -------------
     1 x[1,1]       *              1             0             1 
     2 x[1,2]       *              1             0             1 
     3 x[1,3]       *              1             0             1 
     4 x[1,4]       *              1             0             1 
     5 x[1,5]       *              1             0             1 
     6 x[1,6]       *              1             0             1 
     7 x[1,7]       *              0             0             1 
     8 x[1,8]       *              0             0             1 
     9 x[1,9]       *              0             0             1 
    10 x[1,10]      *              0             0             1 
    11 x[1,11]      *              0             0             1 
    12 x[1,12]      *              0             0             1 
    13 x[1,13]      *              0             0             1 
    14 x[1,14]      *              0             0             1 
    15 x[1,15]      *              0             0             1 
    16 x[1,16]      *              0             0             1 
    17 x[1,17]      *              0             0             1 
    18 x[1,18]      *              0             0             1 
    19 x[1,19]      *              0             0             1 
    20 x[1,20]      *              0             0             1 
    21 x[1,21]      *              0             0             1 
    22 x[1,22]      *              0             0             1 
    23 x[1,23]      *              0             0             1 
    24 x[1,24]      *              0             0             1 
    25 x[1,25]      *              0             0             1 
    26 x[1,26]      *              0             0             1 
    27 x[1,27]      *              0             0             1 
    28 x[2,1]       *              0             0             1 
    29 x[2,2]       *              0             0             1 
    30 x[2,3]       *              0             0             1 
    31 x[2,4]       *              0             0             1 
    32 x[2,5]       *              0             0             1 
    33 x[2,6]       *              0             0             1 
    34 x[2,7]       *              0             0             1 
    35 x[2,8]       *              0             0             1 
    36 x[2,9]       *              0             0             1 
    37 x[2,10]      *              0             0             1 
    38 x[2,11]      *              0             0             1 
    39 x[2,12]      *              0             0             1 
    40 x[2,13]      *              1             0             1 
    41 x[2,14]      *              1             0             1 
    42 x[2,15]      *              1             0             1 
    43 x[2,16]      *              1             0             1 
    44 x[2,17]      *              1             0             1 
    45 x[2,18]      *              1             0             1 
    46 x[2,19]      *              0             0             1 
    47 x[2,20]      *              0             0             1 
    48 x[2,21]      *              0             0             1 
    49 x[2,22]      *              0             0             1 
    50 x[2,23]      *              0             0             1 
    51 x[2,24]      *              0             0             1 
    52 x[2,25]      *              0             0             1 
    53 x[2,26]      *              0             0             1 
    54 x[2,27]      *              0             0             1 
    55 x[3,1]       *              0             0             1 
    56 x[3,2]       *              0             0             1 
    57 x[3,3]       *              0             0             1 
    58 x[3,4]       *              0             0             1 
    59 x[3,5]       *              0             0             1 
    60 x[3,6]       *              0             0             1 
    61 x[3,7]       *              1             0             1 
    62 x[3,8]       *              1             0             1 
    63 x[3,9]       *              1             0             1 
    64 x[3,10]      *              1             0             1 
    65 x[3,11]      *              1             0             1 
    66 x[3,12]      *              1             0             1 
    67 x[3,13]      *              0             0             1 
    68 x[3,14]      *              0             0             1 
    69 x[3,15]      *              0             0             1 
    70 x[3,16]      *              0             0             1 
    71 x[3,17]      *              0             0             1 
    72 x[3,18]      *              0             0             1 
    73 x[3,19]      *              0             0             1 
    74 x[3,20]      *              0             0             1 
    75 x[3,21]      *              0             0             1 
    76 x[3,22]      *              0             0             1 
    77 x[3,23]      *              0             0             1 
    78 x[3,24]      *              0             0             1 
    79 x[3,25]      *              0             0             1 
    80 x[3,26]      *              0             0             1 
    81 x[3,27]      *              0             0             1 
    82 x[4,1]       *              0             0             1 
    83 x[4,2]       *              0             0             1 
    84 x[4,3]       *              0             0             1 
    85 x[4,4]       *              0             0             1 
    86 x[4,5]       *              0             0             1 
    87 x[4,6]       *              0             0             1 
    88 x[4,7]       *              0             0             1 
    89 x[4,8]       *              0             0             1 
    90 x[4,9]       *              1             0             1 
    91 x[4,10]      *              1             0             1 
    92 x[4,11]      *              1             0             1 
    93 x[4,12]      *              1             0             1 
    94 x[4,13]      *              0             0             1 
    95 x[4,14]      *              0             0             1 
    96 x[4,15]      *              0             0             1 
    97 x[4,16]      *              0             0             1 
    98 x[4,17]      *              0             0             1 
    99 x[4,18]      *              0             0             1 
   100 x[4,19]      *              0             0             1 
   101 x[4,20]      *              0             0             1 
   102 x[4,21]      *              0             0             1 
   103 x[4,22]      *              0             0             1 
   104 x[4,23]      *              0             0             1 
   105 x[4,24]      *              0             0             1 
   106 x[4,25]      *              0             0             1 
   107 x[4,26]      *              0             0             1 
   108 x[4,27]      *              0             0             1 
   109 x[5,1]       *              0             0             1 
   110 x[5,2]       *              0             0             1 
   111 x[5,3]       *              0             0             1 
   112 x[5,4]       *              0             0             1 
   113 x[5,5]       *              0             0             1 
   114 x[5,6]       *              0             0             1 
   115 x[5,7]       *              0             0             1 
   116 x[5,8]       *              0             0             1 
   117 x[5,9]       *              0             0             1 
   118 x[5,10]      *              0             0             1 
   119 x[5,11]      *              0             0             1 
   120 x[5,12]      *              0             0             1 
   121 x[5,13]      *              1             0             1 
   122 x[5,14]      *              1             0             1 
   123 x[5,15]      *              1             0             1 
   124 x[5,16]      *              1             0             1 
   125 x[5,17]      *              1             0             1 
   126 x[5,18]      *              0             0             1 
   127 x[5,19]      *              0             0             1 
   128 x[5,20]      *              0             0             1 
   129 x[5,21]      *              0             0             1 
   130 x[5,22]      *              0             0             1 
   131 x[5,23]      *              0             0             1 
   132 x[5,24]      *              0             0             1 
   133 x[5,25]      *              0             0             1 
   134 x[5,26]      *              0             0             1 
   135 x[5,27]      *              0             0             1 
   136 z                          18                             

Integer feasibility conditions:

KKT.PE: max.abs.err = 0.00e+00 on row 0
        max.rel.err = 0.00e+00 on row 0
        High quality

KKT.PB: max.abs.err = 0.00e+00 on row 0
        max.rel.err = 0.00e+00 on row 0
        High quality

End of output
